(declare-fun temp10401_1 () (_ BitVec 64))
(declare-fun var79569 () (_ BitVec 64))
(declare-fun k!0 () Bool)
(declare-fun ARGNAME_input1_NAMEEND_DIM () (_ BitVec 64))
(declare-fun ARGNAME_input2_NAMEEND_DIM () (_ BitVec 64))
(declare-fun temp10401_2 () (_ BitVec 64))
(declare-fun var79623 () (_ BitVec 64))
(declare-fun var204300 () (_ BitVec 64))
(declare-fun temp10401_4 () (_ BitVec 64))
(declare-fun temp10401_3 () (_ BitVec 64))
(declare-fun var267251 () (_ BitVec 64))
(declare-fun var267252 () (_ BitVec 64))
(declare-fun temp10401_5 () (_ BitVec 64))
(declare-fun temp10401_6 () (_ BitVec 64))
(declare-fun var336917 () (_ BitVec 64))
(declare-fun var402464 () (_ BitVec 64))
(declare-fun var204318 () (_ BitVec 64))
(declare-fun temp10401_7 () (_ BitVec 64))
(declare-fun var79724 () (_ BitVec 64))
(declare-fun temp10401_8 () (_ BitVec 64))
(declare-fun temp10401_9 () (_ BitVec 64))
(declare-fun ARGNAME_input1_NAMEEND_DIMSIZE
             ()
             (Array (_ BitVec 64) (_ BitVec 64)))
(declare-fun temp10401_10 () (_ BitVec 64))
(declare-fun temp10401_11 () (_ BitVec 64))
(declare-fun temp10401_12 () (_ BitVec 64))
(declare-fun temp10401_13 () (_ BitVec 64))
(declare-fun temp10401_14 () (_ BitVec 64))
(declare-fun temp10401_15 () (_ BitVec 64))
(declare-fun temp10401_16 () (_ BitVec 64))
(declare-fun temp10401_17 () (_ BitVec 64))
(declare-fun temp10401_18 () (_ BitVec 64))
(declare-fun temp10401_19 () (_ BitVec 64))
(declare-fun temp10401_20 () (_ BitVec 64))
(declare-fun temp10401_21 () (_ BitVec 64))
(declare-fun temp10401_22 () (_ BitVec 64))
(declare-fun temp10401_23 () (_ BitVec 64))
(declare-fun temp10401_24 () (_ BitVec 64))
(declare-fun temp10401_25 () (_ BitVec 64))
(declare-fun temp10401_26 () (_ BitVec 64))
(declare-fun temp10401_27 () (_ BitVec 64))
(declare-fun temp10401_28 () (_ BitVec 64))
(declare-fun var79725 () (_ BitVec 64))
(declare-fun temp10401_29 () (_ BitVec 64))
(declare-fun var66592 () (_ BitVec 64))
(declare-fun temp10401_30 () (_ BitVec 64))
(declare-fun temp10401_31 () (_ BitVec 64))
(declare-fun ARGNAME_weight_NAMEEND_DIMSIZE
             ()
             (Array (_ BitVec 64) (_ BitVec 64)))
(declare-fun temp10401_32 () (_ BitVec 64))
(declare-fun temp10401_33 () (_ BitVec 64))
(declare-fun temp10401_34 () (_ BitVec 64))
(declare-fun temp10401_35 () (_ BitVec 64))
(declare-fun temp10401_36 () (_ BitVec 64))
(declare-fun temp10401_37 () (_ BitVec 64))
(declare-fun temp10401_38 () (_ BitVec 64))
(declare-fun temp10401_39 () (_ BitVec 64))
(declare-fun temp10401_40 () (_ BitVec 64))
(declare-fun temp10401_41 () (_ BitVec 64))
(declare-fun temp10401_42 () (_ BitVec 64))
(declare-fun temp10401_43 () (_ BitVec 64))
(declare-fun temp10401_44 () (_ BitVec 64))
(declare-fun temp10401_45 () (_ BitVec 64))
(declare-fun temp10401_46 () (_ BitVec 64))
(declare-fun temp10401_47 () (_ BitVec 64))
(declare-fun temp10401_48 () (_ BitVec 64))
(declare-fun ARGNAME_weight_NAMEEND_DIM () (_ BitVec 64))
(declare-fun temp10401_49 () (_ BitVec 64))
(declare-fun temp10401_50 () (_ BitVec 64))
(declare-fun var79727 () (_ BitVec 64))
(declare-fun var79728 () (_ BitVec 64))
(declare-fun temp10401_51 () (_ BitVec 64))
(declare-fun temp10401_52 () (_ BitVec 64))
(declare-fun var79776 () (_ BitVec 64))
(declare-fun temp10401_53 () (_ BitVec 64))
(declare-fun temp10401_54 () (_ BitVec 64))
(declare-fun ARGNAME_input2_NAMEEND_DIMSIZE
             ()
             (Array (_ BitVec 64) (_ BitVec 64)))
(declare-fun temp10401_55 () (_ BitVec 64))
(declare-fun temp10401_56 () (_ BitVec 64))
(declare-fun temp10401_57 () (_ BitVec 64))
(declare-fun temp10401_58 () (_ BitVec 64))
(declare-fun temp10401_59 () (_ BitVec 64))
(declare-fun temp10401_60 () (_ BitVec 64))
(declare-fun temp10401_61 () (_ BitVec 64))
(declare-fun temp10401_62 () (_ BitVec 64))
(declare-fun temp10401_63 () (_ BitVec 64))
(declare-fun temp10401_64 () (_ BitVec 64))
(declare-fun temp10401_65 () (_ BitVec 64))
(declare-fun temp10401_66 () (_ BitVec 64))
(declare-fun temp10401_67 () (_ BitVec 64))
(declare-fun temp10401_68 () (_ BitVec 64))
(declare-fun temp10401_69 () (_ BitVec 64))
(declare-fun temp10401_70 () (_ BitVec 64))
(declare-fun temp10401_71 () (_ BitVec 64))
(declare-fun temp10401_72 () (_ BitVec 64))
(declare-fun temp10401_73 () (_ BitVec 64))
(declare-fun var79777 () (_ BitVec 64))
(declare-fun temp10401_74 () (_ BitVec 64))
(declare-fun var66492 () (_ BitVec 64))
(declare-fun temp10401_75 () (_ BitVec 64))
(declare-fun temp10401_76 () (_ BitVec 64))
(declare-fun temp10401_77 () (_ BitVec 64))
(declare-fun var79778 () (_ BitVec 64))
(declare-fun var79779 () (_ BitVec 64))
(declare-fun temp10401_78 () (_ BitVec 64))
(declare-fun temp10401_79 () (_ BitVec 64))
(declare-fun var65961 () (_ BitVec 64))
(declare-fun temp10401_80 () (_ BitVec 64))
(declare-fun temp10401_81 () (_ BitVec 64))
(declare-fun ARGNAME_bias_NAMEEND_DIMSIZE
             ()
             (Array (_ BitVec 64) (_ BitVec 64)))
(declare-fun temp10401_82 () (_ BitVec 64))
(declare-fun temp10401_83 () (_ BitVec 64))
(declare-fun temp10401_84 () (_ BitVec 64))
(declare-fun temp10401_85 () (_ BitVec 64))
(declare-fun temp10401_86 () (_ BitVec 64))
(declare-fun temp10401_87 () (_ BitVec 64))
(declare-fun temp10401_88 () (_ BitVec 64))
(declare-fun temp10401_89 () (_ BitVec 64))
(declare-fun temp10401_90 () (_ BitVec 64))
(declare-fun temp10401_91 () (_ BitVec 64))
(declare-fun temp10401_92 () (_ BitVec 64))
(declare-fun temp10401_93 () (_ BitVec 64))
(declare-fun temp10401_94 () (_ BitVec 64))
(declare-fun temp10401_95 () (_ BitVec 64))
(declare-fun temp10401_96 () (_ BitVec 64))
(declare-fun temp10401_97 () (_ BitVec 64))
(declare-fun temp10401_98 () (_ BitVec 64))
(declare-fun ARGNAME_bias_NAMEEND_DIM () (_ BitVec 64))
(declare-fun temp10401_99 () (_ BitVec 64))
(declare-fun temp10401_100 () (_ BitVec 64))
(declare-fun var79827 () (_ BitVec 64))
(declare-fun temp10401_101 () (_ BitVec 64))
(declare-fun temp10401_102 () (_ BitVec 64))
(declare-fun temp10401_103 () (_ BitVec 64))
(declare-fun temp10401_104 () (_ BitVec 64))
(declare-fun var79828 () (_ BitVec 64))
(declare-fun var79829 () (_ BitVec 64))
(declare-fun temp10401_105 () (_ BitVec 64))
(declare-fun temp10401_106 () (_ BitVec 64))
(declare-fun temp10401_107 () (_ BitVec 64))
(declare-fun temp10401_108 () (_ BitVec 64))
(declare-fun temp10401_109 () (_ BitVec 64))
(declare-fun var79903 () (_ BitVec 64))
(declare-fun temp10401_110 () (_ BitVec 64))
(declare-fun var3023325 () (_ BitVec 64))
(declare-fun temp10401_112 () (_ BitVec 64))
(declare-fun temp10401_111 () (_ BitVec 64))
(declare-fun temp10401_113 () (_ BitVec 64))
(declare-fun var67207 () (_ BitVec 64))
(declare-fun temp10401_114 () (_ BitVec 64))
(declare-fun temp10401_115 () (_ BitVec 64))
(declare-fun temp10401_116 () (_ BitVec 64))
(declare-fun var79915 () (_ BitVec 64))
(declare-fun temp10401_117 () (_ BitVec 64))
(declare-fun temp10401_118 () (_ BitVec 64))
(declare-fun temp10401_119 () (_ BitVec 64))
(declare-fun temp10401_120 () (_ BitVec 64))
(declare-fun var79938 () (_ BitVec 64))
(declare-fun temp10401_122 () (_ BitVec 64))
(declare-fun temp10401_121 () (_ BitVec 64))
(declare-fun temp10401_124 () (_ BitVec 64))
(declare-fun temp10401_123 () (_ BitVec 64))
(declare-fun var4533243 () (_ BitVec 64))
(declare-fun temp10401_125 () (_ BitVec 64))
(declare-fun var4533374 () (_ BitVec 64))
(declare-fun temp10401_127 () (_ BitVec 64))
(declare-fun temp10401_126 () (_ BitVec 64))
(declare-fun temp10401_128 () (_ BitVec 64))
(declare-fun var5318818 () (_ BitVec 64))
(declare-fun temp10401_129 () (_ BitVec 64))
(declare-fun var5973063 () (_ BitVec 64))
(declare-fun temp10401_131 () (_ BitVec 64))
(declare-fun temp10401_130 () (_ BitVec 64))
(declare-fun temp10401_132 () (_ BitVec 64))
(declare-fun var6957218 () (_ BitVec 64))
(declare-fun temp10401_133 () (_ BitVec 64))
(declare-fun var7611463 () (_ BitVec 64))
(declare-fun temp10401_135 () (_ BitVec 64))
(declare-fun temp10401_134 () (_ BitVec 64))
(declare-fun temp10401_136 () (_ BitVec 64))
(declare-fun var8595618 () (_ BitVec 64))
(declare-fun temp10401_137 () (_ BitVec 64))
(declare-fun var9249863 () (_ BitVec 64))
(declare-fun temp10401_139 () (_ BitVec 64))
(declare-fun temp10401_138 () (_ BitVec 64))
(declare-fun temp10401_140 () (_ BitVec 64))
(declare-fun var10234018 () (_ BitVec 64))
(declare-fun temp10401_141 () (_ BitVec 64))
(declare-fun var10888263 () (_ BitVec 64))
(declare-fun temp10401_143 () (_ BitVec 64))
(declare-fun temp10401_142 () (_ BitVec 64))
(declare-fun temp10401_144 () (_ BitVec 64))
(declare-fun var11871253 () (_ BitVec 64))
(declare-fun var11936800 () (_ BitVec 64))
(declare-fun temp10401_145 () (_ BitVec 64))
(declare-fun var4533542 () (_ BitVec 64))
(declare-fun temp10401_146 () (_ BitVec 64))
(declare-fun var4533583 () (_ BitVec 64))
(declare-fun var4533617 () (_ BitVec 64))
(declare-fun var4533671 () (_ BitVec 64))
(declare-fun var15081033 () (_ BitVec 64))
(declare-fun var15408713 () (_ BitVec 64))
(declare-fun var15736393 () (_ BitVec 64))
(declare-fun temp10401_147 () (_ BitVec 64))
(declare-fun ARGNAME_weight_NAMEEND_NUMELEMENT () (_ BitVec 64))
(declare-fun var4533720 () (_ BitVec 64))
(declare-fun temp10401_148 () (_ BitVec 64))
(declare-fun var16850505 () (_ BitVec 64))
(declare-fun temp10401_150 () (_ BitVec 64))
(declare-fun temp10401_149 () (_ BitVec 64))
(declare-fun temp10401_151 () (_ BitVec 64))
(declare-fun var17310741 () (_ BitVec 64))
(declare-fun var17376288 () (_ BitVec 64))
(declare-fun var17772587 () (_ BitVec 64))
(declare-fun temp10401_152 () (_ BitVec 64))
(declare-fun var17772589 () (_ BitVec 64))
(declare-fun var17838123 () (_ BitVec 64))
(declare-fun temp10401_153 () (_ BitVec 64))
(declare-fun var17838125 () (_ BitVec 64))
(declare-fun var18362411 () (_ BitVec 64))
(declare-fun temp10401_154 () (_ BitVec 64))
(declare-fun var18362413 () (_ BitVec 64))
(declare-fun temp10401_155 () (_ BitVec 64))
(declare-fun var19735623 () (_ BitVec 64))
(declare-fun temp10401_157 () (_ BitVec 64))
(declare-fun temp10401_156 () (_ BitVec 64))
(declare-fun temp10401_158 () (_ BitVec 64))
(declare-fun var20522005 () (_ BitVec 64))
(declare-fun temp10401_159 () (_ BitVec 64))
(declare-fun var18683626 () (_ BitVec 64))
(declare-fun var18683596 () (_ BitVec 64))
(declare-fun var18683595 () (_ BitVec 64))
(declare-fun temp10401_161 () (_ BitVec 64))
(declare-fun temp10401_160 () (_ BitVec 64))
(declare-fun temp10401_162 () (_ BitVec 64))
(declare-fun var18684104 () (_ BitVec 64))
(declare-fun temp10401_163 () (_ BitVec 64))
(declare-fun var18684038 () (_ BitVec 64))
(declare-fun var18684037 () (_ BitVec 64))
(declare-fun var18684123 () (_ BitVec 64))
(declare-fun temp10401_164 () (_ BitVec 64))
(declare-fun var18684117 () (_ BitVec 64))
(declare-fun var18684116 () (_ BitVec 64))
(declare-fun var18684135 () (_ BitVec 64))
(declare-fun temp10401_166 () (_ BitVec 64))
(declare-fun temp10401_165 () (_ BitVec 64))
(declare-fun temp10401_168 () (_ BitVec 64))
(declare-fun temp10401_167 () (_ BitVec 64))
(assert (= var79569
   (ite (= ARGNAME_input1_NAMEEND_DIM ARGNAME_input2_NAMEEND_DIM)
        #x0000000000000001
        #x0000000000000000)))
(assert (= temp10401_1 #x0000000000000001))
(assert (= var79569 temp10401_1))
(assert (= temp10401_2 #xffffffffffffffff))
(assert (= var79623 (bvadd ARGNAME_input1_NAMEEND_DIM temp10401_2)))
(assert (= var204300 var79623))
(assert (= temp10401_4 #x0000000000000000))
(assert (= temp10401_3 temp10401_4))
(assert (= var267251 var204300))
(assert (= var267252
   (ite (bvslt temp10401_3 var267251) #x0000000000000001 #x0000000000000000)))
(assert (= temp10401_5 (ite (= var267252 #x0000000000000001) var204300 temp10401_3)))
(assert (= temp10401_6 #x0000000000000000))
(assert (= var336917 temp10401_6))
(assert (= var402464 var336917))
(assert (= var204318 var402464))
(assert (= temp10401_7 #xffffffffffffffff))
(assert (= var79724 (bvadd ARGNAME_input1_NAMEEND_DIM temp10401_7)))
(assert (= temp10401_8 #x0000000000000000))
(assert (= temp10401_9 temp10401_8))
(assert (= temp10401_10 (select ARGNAME_input1_NAMEEND_DIMSIZE temp10401_9)))
(assert (= temp10401_11 #x0000000000000001))
(assert (= temp10401_12 temp10401_11))
(assert (= temp10401_13 (select ARGNAME_input1_NAMEEND_DIMSIZE temp10401_12)))
(assert (= temp10401_14 #x0000000000000002))
(assert (= temp10401_15 temp10401_14))
(assert (= temp10401_16 (select ARGNAME_input1_NAMEEND_DIMSIZE temp10401_15)))
(assert (= temp10401_17 #x0000000000000003))
(assert (= temp10401_18 temp10401_17))
(assert (= temp10401_19 (select ARGNAME_input1_NAMEEND_DIMSIZE temp10401_18)))
(assert (= temp10401_20 #x0000000000000004))
(assert (= temp10401_21 temp10401_20))
(assert (= temp10401_22 (select ARGNAME_input1_NAMEEND_DIMSIZE temp10401_21)))
(assert (= temp10401_23 #x0000000000000005))
(assert (= temp10401_24 temp10401_23))
(assert (= temp10401_25 (select ARGNAME_input1_NAMEEND_DIMSIZE temp10401_24)))
(assert (= temp10401_26 #x0000000000000000))
(assert (= temp10401_27
   (ite (bvslt var79724 temp10401_26)
        (bvadd ARGNAME_input1_NAMEEND_DIM var79724)
        var79724)))
(assert (= temp10401_28 (select ARGNAME_input1_NAMEEND_DIMSIZE temp10401_27)))
(assert (= var79725 temp10401_28))
(assert (bvslt (ite (bvslt var79724 temp10401_26)
            (bvadd ARGNAME_input1_NAMEEND_DIM var79724)
            var79724)
       ARGNAME_input1_NAMEEND_DIM))
(assert (= temp10401_29 #x0000000000000001))
(assert (= var66592 temp10401_29))
(assert (= temp10401_30 #x0000000000000000))
(assert (= temp10401_31 temp10401_30))
(assert (= temp10401_32 (select ARGNAME_weight_NAMEEND_DIMSIZE temp10401_31)))
(assert (= temp10401_33 #x0000000000000001))
(assert (= temp10401_34 temp10401_33))
(assert (= temp10401_35 (select ARGNAME_weight_NAMEEND_DIMSIZE temp10401_34)))
(assert (= temp10401_36 #x0000000000000002))
(assert (= temp10401_37 temp10401_36))
(assert (= temp10401_38 (select ARGNAME_weight_NAMEEND_DIMSIZE temp10401_37)))
(assert (= temp10401_39 #x0000000000000003))
(assert (= temp10401_40 temp10401_39))
(assert (= temp10401_41 (select ARGNAME_weight_NAMEEND_DIMSIZE temp10401_40)))
(assert (= temp10401_42 #x0000000000000004))
(assert (= temp10401_43 temp10401_42))
(assert (= temp10401_44 (select ARGNAME_weight_NAMEEND_DIMSIZE temp10401_43)))
(assert (= temp10401_45 #x0000000000000005))
(assert (= temp10401_46 temp10401_45))
(assert (= temp10401_47 (select ARGNAME_weight_NAMEEND_DIMSIZE temp10401_46)))
(assert (= temp10401_48 #x0000000000000000))
(assert (= temp10401_49
   (ite (bvslt var66592 temp10401_48)
        (bvadd ARGNAME_weight_NAMEEND_DIM var66592)
        var66592)))
(assert (= temp10401_50 (select ARGNAME_weight_NAMEEND_DIMSIZE temp10401_49)))
(assert (= var79727 temp10401_50))
(assert (bvslt (ite (bvslt var66592 temp10401_48)
            (bvadd ARGNAME_weight_NAMEEND_DIM var66592)
            var66592)
       ARGNAME_weight_NAMEEND_DIM))
(assert (= var79728 (ite (= var79725 var79727) #x0000000000000001 #x0000000000000000)))
(assert (= temp10401_51 #x0000000000000001))
(assert (= var79728 temp10401_51))
(assert (= temp10401_52 #xffffffffffffffff))
(assert (= var79776 (bvadd ARGNAME_input2_NAMEEND_DIM temp10401_52)))
(assert (= temp10401_53 #x0000000000000000))
(assert (= temp10401_54 temp10401_53))
(assert (= temp10401_55 (select ARGNAME_input2_NAMEEND_DIMSIZE temp10401_54)))
(assert (= temp10401_56 #x0000000000000001))
(assert (= temp10401_57 temp10401_56))
(assert (= temp10401_58 (select ARGNAME_input2_NAMEEND_DIMSIZE temp10401_57)))
(assert (= temp10401_59 #x0000000000000002))
(assert (= temp10401_60 temp10401_59))
(assert (= temp10401_61 (select ARGNAME_input2_NAMEEND_DIMSIZE temp10401_60)))
(assert (= temp10401_62 #x0000000000000003))
(assert (= temp10401_63 temp10401_62))
(assert (= temp10401_64 (select ARGNAME_input2_NAMEEND_DIMSIZE temp10401_63)))
(assert (= temp10401_65 #x0000000000000004))
(assert (= temp10401_66 temp10401_65))
(assert (= temp10401_67 (select ARGNAME_input2_NAMEEND_DIMSIZE temp10401_66)))
(assert (= temp10401_68 #x0000000000000005))
(assert (= temp10401_69 temp10401_68))
(assert (= temp10401_70 (select ARGNAME_input2_NAMEEND_DIMSIZE temp10401_69)))
(assert (= temp10401_71 #x0000000000000000))
(assert (= temp10401_72
   (ite (bvslt var79776 temp10401_71)
        (bvadd ARGNAME_input2_NAMEEND_DIM var79776)
        var79776)))
(assert (= temp10401_73 (select ARGNAME_input2_NAMEEND_DIMSIZE temp10401_72)))
(assert (= var79777 temp10401_73))
(assert (bvslt (ite (bvslt var79776 temp10401_71)
            (bvadd ARGNAME_input2_NAMEEND_DIM var79776)
            var79776)
       ARGNAME_input2_NAMEEND_DIM))
(assert (= temp10401_74 #x0000000000000002))
(assert (= var66492 temp10401_74))
(assert (= temp10401_75 #x0000000000000000))
(assert (= temp10401_76
   (ite (bvslt var66492 temp10401_75)
        (bvadd ARGNAME_weight_NAMEEND_DIM var66492)
        var66492)))
(assert (= temp10401_77 (select ARGNAME_weight_NAMEEND_DIMSIZE temp10401_76)))
(assert (= var79778 temp10401_77))
(assert (bvslt (ite (bvslt var66492 temp10401_75)
            (bvadd ARGNAME_weight_NAMEEND_DIM var66492)
            var66492)
       ARGNAME_weight_NAMEEND_DIM))
(assert (= var79779 (ite (= var79777 var79778) #x0000000000000001 #x0000000000000000)))
(assert (= temp10401_78 #x0000000000000001))
(assert (= var79779 temp10401_78))
(assert (= temp10401_79 #x0000000000000000))
(assert (= var65961 temp10401_79))
(assert (= temp10401_80 #x0000000000000000))
(assert (= temp10401_81 temp10401_80))
(assert (= temp10401_82 (select ARGNAME_bias_NAMEEND_DIMSIZE temp10401_81)))
(assert (= temp10401_83 #x0000000000000001))
(assert (= temp10401_84 temp10401_83))
(assert (= temp10401_85 (select ARGNAME_bias_NAMEEND_DIMSIZE temp10401_84)))
(assert (= temp10401_86 #x0000000000000002))
(assert (= temp10401_87 temp10401_86))
(assert (= temp10401_88 (select ARGNAME_bias_NAMEEND_DIMSIZE temp10401_87)))
(assert (= temp10401_89 #x0000000000000003))
(assert (= temp10401_90 temp10401_89))
(assert (= temp10401_91 (select ARGNAME_bias_NAMEEND_DIMSIZE temp10401_90)))
(assert (= temp10401_92 #x0000000000000004))
(assert (= temp10401_93 temp10401_92))
(assert (= temp10401_94 (select ARGNAME_bias_NAMEEND_DIMSIZE temp10401_93)))
(assert (= temp10401_95 #x0000000000000005))
(assert (= temp10401_96 temp10401_95))
(assert (= temp10401_97 (select ARGNAME_bias_NAMEEND_DIMSIZE temp10401_96)))
(assert (= temp10401_98 #x0000000000000000))
(assert (= temp10401_99
   (ite (bvslt var65961 temp10401_98)
        (bvadd ARGNAME_bias_NAMEEND_DIM var65961)
        var65961)))
(assert (= temp10401_100 (select ARGNAME_bias_NAMEEND_DIMSIZE temp10401_99)))
(assert (= var79827 temp10401_100))
(assert (bvslt (ite (bvslt var65961 temp10401_98)
            (bvadd ARGNAME_bias_NAMEEND_DIM var65961)
            var65961)
       ARGNAME_bias_NAMEEND_DIM))
(assert (= temp10401_101 #x0000000000000000))
(assert (= var65961 temp10401_101))
(assert (= temp10401_102 #x0000000000000000))
(assert (= temp10401_103
   (ite (bvslt var65961 temp10401_102)
        (bvadd ARGNAME_weight_NAMEEND_DIM var65961)
        var65961)))
(assert (= temp10401_104 (select ARGNAME_weight_NAMEEND_DIMSIZE temp10401_103)))
(assert (= var79828 temp10401_104))
(assert (bvslt (ite (bvslt var65961 temp10401_102)
            (bvadd ARGNAME_weight_NAMEEND_DIM var65961)
            var65961)
       ARGNAME_weight_NAMEEND_DIM))
(assert (= var79829 (ite (= var79827 var79828) #x0000000000000001 #x0000000000000000)))
(assert (= temp10401_105 #x0000000000000001))
(assert (= var79829 temp10401_105))
(assert (= temp10401_106 #x0000000000000000))
(assert (= var65961 temp10401_106))
(assert (= temp10401_107 #x0000000000000000))
(assert (= temp10401_108
   (ite (bvslt var65961 temp10401_107)
        (bvadd ARGNAME_weight_NAMEEND_DIM var65961)
        var65961)))
(assert (= temp10401_109 (select ARGNAME_weight_NAMEEND_DIMSIZE temp10401_108)))
(assert (= var79903 temp10401_109))
(assert (bvslt (ite (bvslt var65961 temp10401_107)
            (bvadd ARGNAME_weight_NAMEEND_DIM var65961)
            var65961)
       ARGNAME_weight_NAMEEND_DIM))
(assert (= temp10401_110 #x0000000000000001))
(assert (= var3023325 temp10401_110))
(assert (= temp10401_112 #xffffffffffffffff))
(assert (= temp10401_111 temp10401_112))
(assert (= temp10401_113 #xffffffffffffffff))
(assert (= var67207 temp10401_113))
(assert (= temp10401_114 #x0000000000000000))
(assert (= temp10401_115
   (ite (bvslt var67207 temp10401_114)
        (bvadd ARGNAME_input1_NAMEEND_DIM var67207)
        var67207)))
(assert (= temp10401_116 (select ARGNAME_input1_NAMEEND_DIMSIZE temp10401_115)))
(assert (= var79915 temp10401_116))
(assert (bvslt (ite (bvslt var67207 temp10401_114)
            (bvadd ARGNAME_input1_NAMEEND_DIM var67207)
            var67207)
       ARGNAME_input1_NAMEEND_DIM))
(assert (= temp10401_117 #xffffffffffffffff))
(assert (= var67207 temp10401_117))
(assert (= temp10401_118 #x0000000000000000))
(assert (= temp10401_119
   (ite (bvslt var67207 temp10401_118)
        (bvadd ARGNAME_input2_NAMEEND_DIM var67207)
        var67207)))
(assert (= temp10401_120 (select ARGNAME_input2_NAMEEND_DIMSIZE temp10401_119)))
(assert (= var79938 temp10401_120))
(assert (bvslt (ite (bvslt var67207 temp10401_118)
            (bvadd ARGNAME_input2_NAMEEND_DIM var67207)
            var67207)
       ARGNAME_input2_NAMEEND_DIM))
(assert (= temp10401_122 #x0000000000000003))
(assert (= temp10401_121 temp10401_122))
(assert (= temp10401_124 #x0000000000000003))
(assert (= temp10401_123 temp10401_124))
(assert (= var4533243 var66592))
(assert (= temp10401_125 #x000000000000003f))
(assert (= var4533374 (bvlshr var4533243 temp10401_125)))
(assert (= temp10401_127 #x0000000000000000))
(assert (= temp10401_126 temp10401_127))
(assert (= temp10401_128 #x0000000000000000))
(assert (= var5318818 temp10401_128))
(assert (= temp10401_129 #x0000000000000001))
(assert (= var5973063 temp10401_129))
(assert (= temp10401_131 #x0000000000000000))
(assert (= temp10401_130 temp10401_131))
(assert (= temp10401_132 #x0000000000000000))
(assert (= var6957218 temp10401_132))
(assert (= temp10401_133 #x0000000000000001))
(assert (= var7611463 temp10401_133))
(assert (= temp10401_135 #x0000000000000000))
(assert (= temp10401_134 temp10401_135))
(assert (= temp10401_136 #x0000000000000000))
(assert (= var8595618 temp10401_136))
(assert (= temp10401_137 #x0000000000000001))
(assert (= var9249863 temp10401_137))
(assert (= temp10401_139 #x0000000000000000))
(assert (= temp10401_138 temp10401_139))
(assert (= temp10401_140 #x0000000000000000))
(assert (= var10234018 temp10401_140))
(assert (= temp10401_141 #x0000000000000001))
(assert (= var10888263 temp10401_141))
(assert (= temp10401_143 #x0000000000000000))
(assert (= temp10401_142 temp10401_143))
(assert (= temp10401_144 #x0000000000000000))
(assert (= var11871253 temp10401_144))
(assert (= var11936800 var11871253))
(assert (= temp10401_145 #xffffffffffffffff))
(assert (= var4533542 temp10401_145))
(assert (= temp10401_146 #x0000000000000000))
(assert (= var4533583 temp10401_146))
(assert (= var4533617 var4533583))
(assert (= var4533671 var4533617))
(assert (= var15081033 var4533243))
(assert (= var15408713 var4533243))
(assert (= var15736393 var4533243))
(assert (= temp10401_147 #x0000000000000000))
(assert (= var4533720
   (ite (= ARGNAME_weight_NAMEEND_NUMELEMENT temp10401_147)
        #x0000000000000001
        #x0000000000000000)))
(assert (= temp10401_148 #x0000000000000000))
(assert (= var4533720 temp10401_148))
(assert (= var16850505 var4533243))
(assert (= temp10401_150 #x0000000000000000))
(assert (= temp10401_149 temp10401_150))
(assert (= temp10401_151 #x0000000000000000))
(assert (= var17310741 temp10401_151))
(assert (= var17376288 var17310741))
(assert (= var17772587 var4533243))
(assert (= temp10401_152 #x0000000000000001))
(assert (= var17772589 temp10401_152))
(assert (= var17838123 var4533243))
(assert (= temp10401_153 #x0000000000000001))
(assert (= var17838125 temp10401_153))
(assert (= var18362411 var4533243))
(assert (= temp10401_154 #x0000000000000001))
(assert (= var18362413 temp10401_154))
(assert (= temp10401_155 #x0000000000000001))
(assert (= var19735623 temp10401_155))
(assert (= temp10401_157 #x0000000000000000))
(assert (= temp10401_156 temp10401_157))
(assert (= temp10401_158 #x0000000000000000))
(assert (= var20522005 temp10401_158))
(assert (= temp10401_159 #x0000000000000001))
(assert (= var18683626 temp10401_159))
(assert (= var18683596 var18683626))
(assert (= var18683595 var18683596))
(assert (= temp10401_161 #xffffffffffffffff))
(assert (= temp10401_160 temp10401_161))
(assert (= temp10401_162 #x0000000000000000))
(assert (= var18684104 temp10401_162))
(assert (= temp10401_163 #x0000000000000001))
(assert (= var18684038 (bvadd var18684104 temp10401_163)))
(assert (= var18684037 var18684038))
(assert (= var18684123 var18684037))
(assert (= temp10401_164 #x0000000000000001))
(assert (= var18684117 (bvadd var18684123 temp10401_164)))
(assert (= var18684116 var18684117))
(assert (= var18684135 var18684116))
(assert (= temp10401_166 #x0000000000000003))
(assert (= temp10401_165 temp10401_166))
(assert (= temp10401_168 #x0000000000000003))
(assert (= temp10401_167 temp10401_168))
(model-add temp10401_1 () (_ BitVec 64) #x0000000000000001)
(model-add var79569 () (_ BitVec 64) #x0000000000000001)
(model-del k!0)
(model-add ARGNAME_input1_NAMEEND_DIM
           ()
           (_ BitVec 64)
           (ite k!0
                ARGNAME_input2_NAMEEND_DIM
                (bvnot ARGNAME_input2_NAMEEND_DIM)))





